c CNF-Signature NOR_29
c 
c $p 29 1
c $m (1,2,3,4,5,6,7,8,9,10,11,12,13,14,15,16,17,18,19,20,21,22,23,24,25,26,27,28,29,30)
c $i 1
c $i 2
c $i 3
c $i 4
c $i 5
c $i 6
c $i 7
c $i 8
c $i 9
c $i 10
c $i 11
c $i 12
c $i 13
c $i 14
c $i 15
c $i 16
c $i 17
c $i 18
c $i 19
c $i 20
c $i 21
c $i 22
c $i 23
c $i 24
c $i 25
c $i 26
c $i 27
c $i 28
c $i 29
c $o 30
p cnf 30 30
-1 -30 0
-2 -30 0
-3 -30 0
-4 -30 0
-5 -30 0
-6 -30 0
-7 -30 0
-8 -30 0
-9 -30 0
-10 -30 0
-11 -30 0
-12 -30 0
-13 -30 0
-14 -30 0
-15 -30 0
-16 -30 0
-17 -30 0
-18 -30 0
-19 -30 0
-20 -30 0
-21 -30 0
-22 -30 0
-23 -30 0
-24 -30 0
-25 -30 0
-26 -30 0
-27 -30 0
-28 -30 0
-29 -30 0
1 2 3 4 5 6 7 8 9 10 11 12 13 14 15 16 17 18 19 20 21 22 23 24 25 26 27 28 29 30 0
